n_nurses =  25;
sched_period =  14;
n_shifts =  3;
nurses_coverage = array2d(period, shifts, [
3, 8, 4,
6, 6, 2,
3, 3, 6,
5, 2, 6,
6, 6, 2,
7, 3, 3,
6, 6, 2,
6, 6, 2,
4, 5, 2,
7, 5, 2,
6, 2, 4,
6, 8, 3,
2, 4, 6,
6, 5, 2]);
